Version identifier: 22.1.0.0 | 2022-03-09 | 1a383f8ce
CPXPARAM_Threads                                 1
CPXPARAM_MIP_Strategy_VariableSelect             3
CPXPARAM_TimeLimit                               599.99998735400004
1 of 1 MIP starts provided solutions.
MIP start 'm1' defined initial solution with objective 1.0000.
Tried aggregator 2 times.
MIP Presolve eliminated 40 rows and 1 columns.
MIP Presolve added 36 rows and 9 columns.
MIP Presolve modified 51 coefficients.
Aggregator did 9 substitutions.
Reduced MIP has 1807 rows, 6000 columns, and 109837 nonzeros.
Reduced MIP has 6000 binaries, 0 generals, 0 SOSs, and 0 indicators.
Presolve time = 0.14 sec. (204.49 ticks)
Probing time = 0.02 sec. (18.14 ticks)
Tried aggregator 1 time.
Detecting symmetries...
MIP Presolve modified 13 coefficients.
Reduced MIP has 1807 rows, 6000 columns, and 110084 nonzeros.
Reduced MIP has 6000 binaries, 0 generals, 0 SOSs, and 0 indicators.
Presolve time = 0.10 sec. (157.54 ticks)
Probing time = 0.02 sec. (18.17 ticks)
Clique table members: 1194.
MIP emphasis: balance optimality and feasibility.
MIP search method: dynamic search.
Parallel mode: none, using 1 thread.
Root relaxation solution time = 1.27 sec. (1551.75 ticks)

        Nodes                                         Cuts/
   Node  Left     Objective  IInf  Best Integer    Best Bound    ItCnt     Gap

*     0+    0                            1.0000    45150.0000              --- 
      0     0      300.0000  1302        1.0000      300.0000     4473     --- 
      0     0      300.0000  1054        1.0000      Cuts: 12    10153     --- 
      0     0      300.0000  1187        1.0000      Cuts: 23    12904     --- 
      0     0      300.0000  1220        1.0000      Cuts: 31    17740     --- 
Detecting symmetries...
      0     2      300.0000   877        1.0000      300.0000    17740     --- 
Elapsed time = 60.03 sec. (65094.45 ticks, tree = 0.01 MB, solutions = 1)
      1     2      234.7500   789        1.0000      300.0000    25581     --- 
      2     3      300.0000  1245        1.0000      300.0000    32088     --- 
      3     4      300.0000  1229        1.0000      300.0000    38422     --- 
      4     5      300.0000  1249        1.0000      300.0000    43872     --- 
      5     6      300.0000  1231        1.0000      300.0000    43948     --- 
      6     7      300.0000  1198        1.0000      300.0000    44515     --- 
      7     8      300.0000  1283        1.0000      300.0000    45034     --- 
      8     9      300.0000  1205        1.0000      300.0000    45330     --- 
      9    10      300.0000  1202        1.0000      300.0000    45345     --- 
     11    12      300.0000  1210        1.0000      300.0000    46363     --- 
Elapsed time = 74.05 sec. (82327.95 ticks, tree = 0.06 MB, solutions = 1)
     13    14      300.0000  1199        1.0000      300.0000    48107     --- 
     15    16      300.0000  1208        1.0000      300.0000    48745     --- 
     18    19      300.0000  1199        1.0000      300.0000    50167     --- 
     20    20      227.0000   694        1.0000      300.0000    52101     --- 
     22    22      300.0000  1198        1.0000      300.0000    53230     --- 
     24    24      300.0000  1182        1.0000      300.0000    53855     --- 
     26    26      300.0000  1175        1.0000      300.0000    55552     --- 
     29    29      300.0000  1172        1.0000      300.0000    55680     --- 
     30    30      300.0000  1195        1.0000      300.0000    56621     --- 
     33    33      300.0000  1185        1.0000      300.0000    58795     --- 
Elapsed time = 90.06 sec. (101158.54 ticks, tree = 0.11 MB, solutions = 1)
     35    35      300.0000  1176        1.0000      300.0000    60471     --- 
     38    38      300.0000  1263        1.0000      300.0000    61182     --- 
     40    40      300.0000  1247        1.0000      300.0000    62879     --- 
     42    42      300.0000  1171        1.0000      300.0000    63518     --- 
     44    44      195.0000   743        1.0000      300.0000    74756     --- 
     45    45      300.0000  1163        1.0000      300.0000    74759     --- 
     47    47      300.0000  1173        1.0000      300.0000    76078     --- 
     49    49      300.0000  1150        1.0000      300.0000    76956     --- 
*    50+   48                           41.0000      300.0000           631.71%
     51    51      300.0000  1134       41.0000      300.0000    77789  631.71%
     53    53      300.0000  1243       41.0000      300.0000    79227  631.71%
Elapsed time = 108.23 sec. (122340.76 ticks, tree = 0.16 MB, solutions = 2)
     55    55      300.0000  1084       41.0000      300.0000    80182  631.71%
     57    57      300.0000  1082       41.0000      300.0000    80999  631.71%
     58    58      300.0000  1110       41.0000      300.0000    86276  631.71%
     60    60      300.0000  1104       41.0000      300.0000    87342  631.71%
     62    62      300.0000  1107       41.0000      300.0000    87927  631.71%
     64    63      264.2500   894       41.0000      300.0000    90242  631.71%
     66    65      300.0000  1094       41.0000      300.0000    90753  631.71%
     68    67      300.0000  1138       41.0000      300.0000    91948  631.71%
     71    70      300.0000  1086       41.0000      300.0000    94375  631.71%
     74    73      300.0000  1070       41.0000      300.0000    96778  631.71%
Elapsed time = 124.77 sec. (140855.88 ticks, tree = 0.21 MB, solutions = 2)
     76    75      300.0000  1064       41.0000      300.0000   103850  631.71%
     78    77      300.0000  1020       41.0000      300.0000   114586  631.71%
     80    78      300.0000   986       41.0000      300.0000   118384  631.71%
     82    79      299.8571  1047       41.0000      300.0000   127819  631.71%
     83    80      299.6220  1030       41.0000      300.0000   138372  631.71%
     85    81      299.6007   952       41.0000      300.0000   146396  631.71%
     87    82      299.8622  1039       41.0000      300.0000   154441  631.71%
     90    84      299.0000  1079       41.0000      300.0000   160780  631.71%
     91    84      299.6768  1033       41.0000      300.0000   168127  631.71%
     93    86      299.0000   841       41.0000      300.0000   175383  631.71%
Elapsed time = 145.32 sec. (161924.19 ticks, tree = 0.25 MB, solutions = 2)
     94    86      298.0500   967       41.0000      300.0000   176746  631.71%
     97    89      299.0000   778       41.0000      300.0000   183948  631.71%
     99    90      299.0000   803       41.0000      300.0000   196315  631.71%
    101    92      299.0000   790       41.0000      300.0000   200847  631.71%
    102    92      298.0434   934       41.0000      300.0000   216003  631.71%
    104    93      299.0000   793       41.0000      300.0000   222112  631.71%
    105    93      298.0286   946       41.0000      300.0000   225134  631.71%
    108    95      298.0906   987       41.0000      300.0000   240777  631.71%
    110    96      298.0000   776       41.0000      300.0000   258151  631.71%
    112    97      298.1374   938       41.0000      300.0000   265287  631.71%
Elapsed time = 162.93 sec. (179114.76 ticks, tree = 0.44 MB, solutions = 2)
    114    98      298.0000  1004       41.0000      300.0000   267681  631.71%
    116    99      298.1434   934       41.0000      300.0000   270112  631.71%
    117    99      299.0000   763       41.0000      300.0000   275849  631.71%
    118   100      299.0000   779       41.0000      300.0000   285917  631.71%
    121   101      298.0000   911       41.0000      300.0000   304134  631.71%
    124   103      297.8328   928       41.0000      300.0000   310491  631.71%
    126   104      299.0000   783       41.0000      300.0000   315516  631.71%
    127   104      297.9579   948       41.0000      300.0000   333704  631.71%
    129   105      298.1129   976       41.0000      300.0000   340022  631.71%
    134   106      298.0000   770       41.0000      300.0000   344702  631.71%
Elapsed time = 178.40 sec. (194181.88 ticks, tree = 0.59 MB, solutions = 2)
    138   110      298.0000   759       41.0000      300.0000   346610  631.71%
    140   111      297.0000   882       41.0000      300.0000   353554  631.71%
    144   113      297.6196   883       41.0000      300.0000   360369  631.71%
    148   116      297.6291   853       41.0000      300.0000   367985  631.71%
    150   117      297.0000   852       41.0000      300.0000   376436  631.71%
    153   119      298.0000   745       41.0000      300.0000   379070  631.71%
    155   120      298.0000   749       41.0000      300.0000   384231  631.71%
    157   121      298.0000   742       41.0000      300.0000   393165  631.71%
    161   122      297.0000   845       41.0000      300.0000   399472  631.71%
    164   124      298.0000   747       41.0000      300.0000   404242  631.71%
Elapsed time = 191.45 sec. (206997.91 ticks, tree = 0.89 MB, solutions = 2)
    167   126      297.0000   878       41.0000      300.0000   413744  631.71%
    170   128      298.0000   761       41.0000      300.0000   415942  631.71%
    172   129      297.2130   925       41.0000      300.0000   421395  631.71%
    174   130      297.5377   880       41.0000      300.0000   427340  631.71%
    177   132      298.0000   731       41.0000      300.0000   436904  631.71%
    178   132      297.0000   913       41.0000      300.0000   445511  631.71%
    179   132      297.0000   847       41.0000      300.0000   453565  631.71%
    180   133      297.0000   728       41.0000      300.0000   453770  631.71%
    183   136      297.0000   760       41.0000      300.0000   455445  631.71%
    186   139      297.0000   741       41.0000      300.0000   457518  631.71%
Elapsed time = 206.42 sec. (221734.75 ticks, tree = 1.14 MB, solutions = 2)
    189   141      296.0000   877       41.0000      300.0000   462383  631.71%
    191   143      297.0000   890       41.0000      300.0000   469403  631.71%
    193   145      297.0000   877       41.0000      300.0000   471463  631.71%
    197   148      296.3218   872       41.0000      300.0000   473894  631.71%
    200   150      297.0000   766       41.0000      300.0000   476040  631.71%
    202   151      297.0000   924       41.0000      300.0000   482658  631.71%
    206   154      295.6818   843       41.0000      300.0000   488857  631.71%
    209   155      295.0000   769       41.0000      300.0000   496273  631.71%
    213   157      294.0000   771       41.0000      300.0000   505249  631.71%
    220   161      295.0000   767       41.0000      300.0000   517998  631.71%
Elapsed time = 229.58 sec. (244196.71 ticks, tree = 1.48 MB, solutions = 2)
    232   167      294.0000   735       41.0000      300.0000   544035  631.71%
    251   177      292.0000   602       41.0000      300.0000   564481  631.71%
    275   187      289.8750   552       41.0000      300.0000   593190  631.71%
    296   199      291.0000   511       41.0000      300.0000   624892  631.71%
    318   210      287.0000   409       41.0000      300.0000   649418  631.71%
    329   213      299.0000  1065       41.0000      300.0000   665513  631.71%
    335   217      297.9714   935       41.0000      300.0000   691286  631.71%
    344   222      295.0000   852       41.0000      300.0000   710393  631.71%
    359   234      294.0000   815       41.0000      300.0000   719812  631.71%
    364   238      294.0000   887       41.0000      300.0000   725009  631.71%
Elapsed time = 274.28 sec. (284225.00 ticks, tree = 2.75 MB, solutions = 2)
    380   246      291.7226   705       41.0000      300.0000   740200  631.71%
    392   253      291.9750   674       41.0000      300.0000   760592  631.71%
    400   257      291.0000   644       41.0000      300.0000   766755  631.71%
    414   262      290.0000   626       41.0000      300.0000   778635  631.71%
    437   278      289.0000   405       41.0000      300.0000   795886  631.71%
    464   291      287.0000   379       41.0000      300.0000   820292  631.71%
    506   304      286.0000   331       41.0000      300.0000   837730  631.71%
    551   313      286.0000   291       41.0000      300.0000   857902  631.71%
    558   315      300.0000  1194       41.0000      300.0000   870917  631.71%
    559   316      300.0000  1189       41.0000      300.0000   882680  631.71%
Elapsed time = 321.50 sec. (327762.21 ticks, tree = 4.10 MB, solutions = 2)
    563   320      300.0000  1181       41.0000      300.0000   892880  631.71%
    567   322      299.0000  1147       41.0000      300.0000   909067  631.71%
    577   328      297.0000  1006       41.0000      300.0000   921928  631.71%
    583   330      296.0000   969       41.0000      300.0000   933973  631.71%
    592   337      295.0000   678       41.0000      300.0000   951743  631.71%
    602   344      300.0000  1091       41.0000      300.0000   981152  631.71%
    604   346      300.0000  1209       41.0000      300.0000   999322  631.71%
    613   350      299.0000  1042       41.0000      300.0000  1015972  631.71%
    623   356      298.0000   959       41.0000      300.0000  1032741  631.71%
    628   360      297.0000   933       41.0000      300.0000  1054071  631.71%
Elapsed time = 368.41 sec. (373580.08 ticks, tree = 4.85 MB, solutions = 2)
    639   364      294.0000   780       41.0000      300.0000  1076920  631.71%
    654   375      292.0000   626       41.0000      300.0000  1093169  631.71%
    667   380      292.0000   465       41.0000      300.0000  1130351  631.71%
    685   379    infeasible             41.0000      300.0000  1171598  631.71%
    712   380      292.0000   473       41.0000      300.0000  1207154  631.71%
    736   382      291.0000   490       41.0000      300.0000  1249607  631.71%
    761   381    infeasible             41.0000      300.0000  1297208  631.71%
    781   382      291.0000   496       41.0000      300.0000  1343624  631.71%
    797   381    infeasible             41.0000      300.0000  1399993  631.71%
    802   381      300.0000  1196       41.0000      300.0000  1420442  631.71%
Elapsed time = 416.26 sec. (414253.97 ticks, tree = 5.23 MB, solutions = 2)
    811   389      300.0000  1170       41.0000      300.0000  1425717  631.71%
    816   393      299.0000  1114       41.0000      300.0000  1452133  631.71%
    819   396      300.0000  1144       41.0000      300.0000  1461354  631.71%
    827   403      299.7420  1019       41.0000      300.0000  1496622  631.71%
    829   405      299.9374  1082       41.0000      300.0000  1526849  631.71%
    834   408      300.0000  1141       41.0000      300.0000  1545981  631.71%
    840   413      300.0000  1110       41.0000      300.0000  1559424  631.71%
    845   416      300.0000  1135       41.0000      300.0000  1584275  631.71%
    850   419      299.0000  1003       41.0000      300.0000  1612739  631.71%
    856   423      300.0000  1039       41.0000      300.0000  1634861  631.71%
Elapsed time = 474.82 sec. (473979.23 ticks, tree = 5.92 MB, solutions = 2)
    863   427      300.0000  1028       41.0000      300.0000  1658788  631.71%
    869   429      299.8852  1009       41.0000      300.0000  1699443  631.71%
*   870+  428                           42.0000      300.0000           614.29%
    871   430      298.0000   963       42.0000      300.0000  1732422  614.29%
    879   436      299.0000   985       42.0000      300.0000  1746391  614.29%
    880   437      299.0000   988       42.0000      300.0000  1747068  614.29%
    893   447      268.0000   715       42.0000      300.0000  1753435  614.29%
    915   469      268.0000   558       42.0000      300.0000  1758153  614.29%
    950   498      268.0000   303       42.0000      300.0000  1762169  614.29%
*   981+  513                          152.0000      300.0000            97.37%
*   981+  513                          159.0000      300.0000            88.68%
    981   514      300.0000  1090      159.0000      300.0000  1770230   88.68%
*   982+  511                          210.0000      300.0000            42.86%
*   982+  511                          213.0000      300.0000            40.85%
    982   513      300.0000  1182      213.0000      300.0000  1778958   40.85%
Elapsed time = 549.82 sec. (545932.09 ticks, tree = 7.55 MB, solutions = 7)
*   983+  510                          259.0000      300.0000            15.83%
*   983+  510                          262.0000      300.0000            14.50%

Clique cuts applied:  75
Zero-half cuts applied:  22

Root node processing (before b&c):
  Real time             =   59.74 sec. (64846.98 ticks)
Sequential b&c:
  Real time             =  540.27 sec. (527257.79 ticks)
                          ------------
Total (root+branch&cut) =  600.01 sec. (592104.77 ticks)
Primal:	262
Dual:	300
Status:	Feasible
Time:	599.98
Sequence:
	18
	0
	15
	3
	15
	0
	0
	15
	7
	10
	0
	6
	10
	7
	10
	5
	6
	10
	7
	10
	5
	17
	0
	15
	7
	10
	5
	7
	10
	4
	5
	10
	5
	15
	3
	0
	15
	0
	15
	3
	0
	10
	5
	10
	7
	0
	10
	3
	10
	0
	0
	15
	7
	10
	4
	18
	0
	15
	7
	11
	0
	15
	0
	10
	4
	10
	8
	15
	0
	15
	7
	10
	4
	0
	15
	5
	2
	15
	5
	10
	6
	15
	2
	15
	0
	15
	0
	15
	3
	5
	15
	0
	10
	7
	15
	1
	15
	2
	15
	5
	10
	7
	5
	10
	6
	7
	10
	5
	10
	4
	15
	0
	15
	2
	15
	5
	12
	0
	15
	7
	10
	0
	15
	0
	7
	10
	6
	7
	10
	5
	15
	1
	10
	7
	15
	0
	10
	5
	11
	7
	5
	10
	5
	7
	11
	5
	7
	10
	0
	17
	5
	10
	7
	5
	10
	8
	10
	4
	15
	2
	15
	5
	13
	4
	15
	2
	10
	5
	17
	0
	15
	2
	15
	4
	13
	5
	15
	2
	15
	0
	15
	8
	10
	4
	5
	10
	5
	2
	15
	0
	17
	5
	10
	7
	10
	5
	8
	10
	4
	15
	2
	5
	15
	1
	15
	2
	5
	15
	2
	15
	6
	0
	15
	7
	10
	5
	4
	10
	8
	15
	0
	15
	2
	10
	5
	17
	0
	15
	7
	10
	4
	15
	0
	15
	8
	10
	4
	10
	5
	10
	5
	10
	4
	0
	15
	5
	10
	7
	10
	1
	5
	15
	2
	15
	4
	13
	5
	10
	7
	15
	1
	5
